p tw 315 338
1 2
2 113
3 14
4 5
4 20
5 6
6 7
7 8
8 9
9 10
10 11
11 12
12 13
13 15
13 20
14 25
14 262
15 16
16 17
17 18
18 19
19 20
20 21
21 22
21 24
22 23
23 24
23 31
24 26
25 36
25 58
26 27
27 28
28 29
29 30
30 240
31 32
32 33
33 34
33 40
34 35
35 37
36 47
37 38
38 39
39 240
40 41
41 42
42 43
42 48
43 44
44 45
45 46
46 240
47 102
48 49
49 50
50 51
51 52
52 53
53 54
54 55
55 56
56 57
57 59
58 69
59 60
60 61
61 62
62 63
63 64
64 65
65 66
66 67
67 68
68 70
69 80
70 71
71 72
72 73
73 74
74 75
75 76
76 77
77 78
78 79
79 81
80 91
81 82
82 83
83 84
84 85
85 86
85 98
86 87
87 88
88 89
89 90
90 92
91 102
92 93
93 94
94 95
95 96
96 97
97 78
98 99
99 100
100 101
101 103
102 114
103 104
104 105
105 106
106 107
107 108
108 109
109 110
110 111
111 112
112 115
113 224
114 125
115 116
116 117
116 139
117 118
117 120
118 119
119 124
120 121
121 122
122 123
123 124
124 126
125 136
125 283
126 127
127 128
128 129
129 130
130 131
131 132
132 133
132 108
133 134
134 135
135 137
136 147
137 138
138 108
139 140
140 141
140 149
141 142
142 143
143 144
144 145
145 146
146 148
147 158
148 240
149 150
150 151
151 152
152 153
153 154
154 155
155 156
156 157
157 159
158 169
159 160
160 161
161 162
161 167
162 163
163 164
164 165
165 166
166 167
167 168
168 170
169 180
170 171
171 172
172 173
173 174
174 175
175 176
176 177
177 178
178 179
179 181
180 191
181 182
182 183
183 184
184 185
185 186
186 187
187 188
188 189
189 190
190 192
191 202
192 193
192 170
193 194
194 195
195 196
196 197
197 198
198 199
199 200
200 201
201 203
202 213
203 204
204 205
205 206
206 207
207 208
208 209
208 233
209 210
209 212
210 211
211 218
212 214
213 225
213 255
214 215
215 216
216 217
217 218
218 219
219 220
220 221
221 222
222 223
223 226
224 250
225 236
225 243
226 227
227 228
227 201
228 229
229 230
230 231
231 232
232 201
233 234
234 235
235 237
236 242
237 238
238 239
239 240
240 241
242 247
243 244
244 245
245 246
246 247
247 248
248 249
249 251
250 261
251 252
252 253
253 254
254 169
255 256
256 257
257 258
258 259
259 260
260 240
261 272
262 263
263 264
264 265
265 266
266 267
266 269
267 268
268 275
269 270
270 271
271 273
272 283
273 274
274 275
275 276
276 277
277 278
278 279
279 280
280 281
280 287
281 282
282 284
283 294
284 285
285 286
286 240
287 288
288 289
289 290
290 291
291 292
292 293
293 295
294 305
295 296
296 297
297 298
298 299
299 300
300 301
301 302
302 303
303 304
304 306
305 3
306 307
307 308
307 310
308 309
309 314
310 311
311 312
312 313
313 314
314 315
315 4
